NAME          BLANK   
ROWS
 N  OBJROW
 L  R0000000
COLUMNS
    C0000000  OBJROW     -708.         R0000000  224.        
    C0000001  OBJROW     -447.         R0000000  299.        
    C0000002  OBJROW     -772.         R0000000  590.        
    C0000003  OBJROW     -799.         R0000000  301.        
    C0000004  OBJROW     -698.         R0000000  484.        
    C0000005  OBJROW     -441.         R0000000  103.        
    C0000006  OBJROW     -394.         R0000000  116.        
    C0000007  OBJROW     -801.         R0000000  247.        
    C0000008  OBJROW     -376.         R0000000  516.        
    C0000009  OBJROW     -74.          R0000000  623.        
    C0000010  OBJROW     -400.         R0000000  634.        
    C0000011  OBJROW     -267.         R0000000  928.        
    C0000012  OBJROW     -952.         R0000000  339.        
    C0000013  OBJROW     -121.         R0000000  864.        
    C0000014  OBJROW     -18.          R0000000  761.        
    C0000015  OBJROW     -489.         R0000000  562.        
    C0000016  OBJROW     -586.         R0000000  217.        
    C0000017  OBJROW     -447.         R0000000  584.        
    C0000018  OBJROW     -876.         R0000000  706.        
    C0000019  OBJROW     -79.          R0000000  913.        
    C0000020  OBJROW     -906.         R0000000  272.        
    C0000021  OBJROW     -929.         R0000000  794.        
    C0000022  OBJROW     -920.         R0000000  192.        
    C0000023  OBJROW     -931.         R0000000  779.        
    C0000024  OBJROW     -976.         R0000000  182.        
    C0000025  OBJROW     -425.         R0000000  653.        
    C0000026  OBJROW     -410.         R0000000  566.        
    C0000027  OBJROW     -447.         R0000000  955.        
    C0000028  OBJROW     -60.          R0000000  336.        
    C0000029  OBJROW     -455.         R0000000  955.        
    C0000030  OBJROW     -170.         R0000000  136.        
    C0000031  OBJROW     -577.         R0000000  537.        
    C0000032  OBJROW     -216.         R0000000  25.         
    C0000033  OBJROW     -51.          R0000000  897.        
    C0000034  OBJROW     -24.          R0000000  449.        
    C0000035  OBJROW     -913.         R0000000  729.        
    C0000036  OBJROW     -273.         R0000000  138.        
    C0000037  OBJROW     -697.         R0000000  607.        
    C0000038  OBJROW     -418.         R0000000  11.         
    C0000039  OBJROW     -25.          R0000000  184.        
    C0000040  OBJROW     -186.         R0000000  209.        
    C0000041  OBJROW     -169.         R0000000  506.        
    C0000042  OBJROW     -216.         R0000000  377.        
    C0000043  OBJROW     -986.         R0000000  986.        
    C0000044  OBJROW     -33.          R0000000  833.        
    C0000045  OBJROW     -168.         R0000000  104.        
    C0000046  OBJROW     -346.         R0000000  202.        
    C0000047  OBJROW     -345.         R0000000  153.        
    C0000048  OBJROW     -160.         R0000000  408.        
    C0000049  OBJROW     -114.         R0000000  610.        
RHS
    RHS       R0000000  11898.      
BOUNDS
 BV BOUND     C0000000  1.          
 BV BOUND     C0000001  1.          
 BV BOUND     C0000002  1.          
 BV BOUND     C0000003  1.          
 BV BOUND     C0000004  1.          
 BV BOUND     C0000005  1.          
 BV BOUND     C0000006  1.          
 BV BOUND     C0000007  1.          
 BV BOUND     C0000008  1.          
 BV BOUND     C0000009  1.          
 BV BOUND     C0000010  1.          
 BV BOUND     C0000011  1.          
 BV BOUND     C0000012  1.          
 BV BOUND     C0000013  1.          
 BV BOUND     C0000014  1.          
 BV BOUND     C0000015  1.          
 BV BOUND     C0000016  1.          
 BV BOUND     C0000017  1.          
 BV BOUND     C0000018  1.          
 BV BOUND     C0000019  1.          
 BV BOUND     C0000020  1.          
 BV BOUND     C0000021  1.          
 BV BOUND     C0000022  1.          
 BV BOUND     C0000023  1.          
 BV BOUND     C0000024  1.          
 BV BOUND     C0000025  1.          
 BV BOUND     C0000026  1.          
 BV BOUND     C0000027  1.          
 BV BOUND     C0000028  1.          
 BV BOUND     C0000029  1.          
 BV BOUND     C0000030  1.          
 BV BOUND     C0000031  1.          
 BV BOUND     C0000032  1.          
 BV BOUND     C0000033  1.          
 BV BOUND     C0000034  1.          
 BV BOUND     C0000035  1.          
 BV BOUND     C0000036  1.          
 BV BOUND     C0000037  1.          
 BV BOUND     C0000038  1.          
 BV BOUND     C0000039  1.          
 BV BOUND     C0000040  1.          
 BV BOUND     C0000041  1.          
 BV BOUND     C0000042  1.          
 BV BOUND     C0000043  1.          
 BV BOUND     C0000044  1.          
 BV BOUND     C0000045  1.          
 BV BOUND     C0000046  1.          
 BV BOUND     C0000047  1.          
 BV BOUND     C0000048  1.          
 BV BOUND     C0000049  1.          
ENDATA
